coords = array2d(1..65, 1..2, [245, 806, 293, 454, 710, 567, 702, 176, 760, 19,
    208, 458, 879, 965, 894, 704, 660, 889, 251, 525, 962, 765, 478,
    938, 882, 67, 479, 955, 166, 523, 63, 238, 242, 277, 987, 989,
    128, 549, 150, 790, 417, 407, 138, 768, 62, 175, 480, 98, 553,
    303, 42, 643, 450, 381, 89, 443, 895, 319, 986, 965, 326, 990,
    354, 698, 6, 536, 930, 700, 686, 409, 821, 142, 172, 95, 292, 60,
    993, 352, 145, 352, 247, 925, 762, 99, 118, 18, 563, 500, 116, 28,
    993, 882, 600, 693, 469, 836, 340, 396, 115, 57, 548, 736, 845,
    289, 489, 166, 19, 648, 341, 813, 88, 672, 603, 241, 987, 741,
    782, 840, 628, 526, 794, 152, 709, 197, 829, 549, 830, 515, 257,
    4]);

n = 65;

